Welcome to the CBC MILP Solver 
Version: Trunk
Build Date: Apr 16 2020 

Starting solution of the Linear programming relaxation problem using Primal Simplex

Using Python-MIP package version 1.8.1
Machines:  3 Jobs:  3
Order: 
Job  0 : machine 1 ( 7 ) machine 2 ( 7 ) machine 0 ( 1 ) 
Job  1 : machine 1 ( 4 ) machine 0 ( 3 ) machine 2 ( 7 ) 
Job  2 : machine 1 ( 7 ) machine 2 ( 6 ) machine 0 ( 2 ) 
K:  33
Job  0 , e: machine  0 ( 14 ) machine  1 ( 0 ) machine  2 ( 7 ) 
Job  1 , e: machine  0 ( 4 ) machine  1 ( 0 ) machine  2 ( 7 ) 
Job  2 , e: machine  0 ( 13 ) machine  1 ( 0 ) machine  2 ( 7 ) 
Job  0 , f: machine  0 ( 0 ) machine  1 ( 8 ) machine  2 ( 1 ) 
Job  1 , f: machine  0 ( 7 ) machine  1 ( 10 ) machine  2 ( 0 ) 
Job  2 , f: machine  0 ( 0 ) machine  1 ( 8 ) machine  2 ( 2 ) 
EST and LST:
Job: 0 Machine: 0 EST: 14 LST: 32
Job: 0 Machine: 1 EST: 0 LST: 18
Job: 0 Machine: 2 EST: 7 LST: 25
Job: 1 Machine: 0 EST: 4 LST: 23
Job: 1 Machine: 1 EST: 0 LST: 19
Job: 1 Machine: 2 EST: 7 LST: 26
Job: 2 Machine: 0 EST: 13 LST: 31
Job: 2 Machine: 1 EST: 0 LST: 18
Job: 2 Machine: 2 EST: 7 LST: 25
Order:
Job: 0 Machine: 0 = 2 
Job: 0 Machine: 1 = 0 
Job: 0 Machine: 2 = 1 
Job: 1 Machine: 0 = 1 
Job: 1 Machine: 1 = 0 
Job: 1 Machine: 2 = 2 
Job: 2 Machine: 0 = 2 
Job: 2 Machine: 1 = 0 
Job: 2 Machine: 2 = 1 
Distances:
Job 0, Machine 1 -> Machine 2: distance 7
Job 0, Machine 1 -> Machine 0: distance 14
Job 0, Machine 2 -> Machine 0: distance 7
Job 1, Machine 1 -> Machine 0: distance 4
Job 1, Machine 1 -> Machine 2: distance 7
Job 1, Machine 0 -> Machine 2: distance 3
Job 2, Machine 1 -> Machine 2: distance 7
Job 2, Machine 1 -> Machine 0: distance 13
Job 2, Machine 2 -> Machine 0: distance 6
McCormic linearization
[(0, 1), (1, 2), (0, 2), (2, 1), (2, 0), (2, 2), (1, 0), (1, 1)]
obj:  0.0
solutions:  1
+ 0.14285714285714285x(0,1) + 0.14285714285714285x(2,1) 
C:  18.5
x(0,0) = 17.50	 x(0,1) = 3.50	 x(0,2) = 10.50	 
x(1,0) = 8.50	 x(1,1) = 4.50	 x(1,2) = 11.50	 
x(2,0) = 16.50	 x(2,1) = 3.50	 x(2,2) = 10.50	 
y(0,1,0) = 0.00	 y(1,0,0) = 1.00	 
y(0,2,0) = 0.90	 y(2,0,0) = 0.10	 
y(1,2,0) = 0.59	 y(2,1,0) = 0.41	 
y(0,1,1) = 0.22	 y(1,0,1) = 0.78	 
y(0,2,1) = 0.50	 y(2,0,1) = 0.50	 
y(1,2,1) = 0.36	 y(2,1,1) = 0.64	 
y(0,1,2) = 0.50	 y(1,0,2) = 0.50	 
y(0,2,2) = 0.42	 y(2,0,2) = 0.58	 
y(1,2,2) = 0.49	 y(2,1,2) = 0.51	 
obj:  0.7948717948717949
solutions:  1
+ 0.02564102564102565x(1,2) + 0.02197802197802197x(2,2) + 0.025641025641025647x(0,2) 
[(1, 2), (0, 1), (2, 1), (2, 0), (2, 2), (1, 0), (0, 2)]
cliques:  1 mip: 32
C:  21.871428571428567
x(0,0) = 20.87	 x(0,1) = 6.87	 x(0,2) = 13.87	 
x(1,0) = 7.73	 x(1,1) = 2.87	 x(1,2) = 14.87	 
x(2,0) = 18.87	 x(2,1) = 0.13	 x(2,2) = 11.97	 
y(0,1,0) = 0.00	 y(1,0,0) = 1.00	 
y(0,2,0) = 0.00	 y(2,0,0) = 1.00	 
y(1,2,0) = 0.66	 y(2,1,0) = 0.34	 
y(0,1,1) = 0.00	 y(1,0,1) = 1.00	 
y(0,2,1) = 0.04	 y(2,0,1) = 0.96	 
y(1,2,1) = 0.47	 y(2,1,1) = 0.53	 
y(0,1,2) = 0.31	 y(1,0,2) = 0.69	 
y(0,2,2) = 0.17	 y(2,0,2) = 0.83	 
y(1,2,2) = 0.62	 y(2,1,2) = 0.38	 
obj:  0.4423469387755113
solutions:  1
+ 0.25x(2,1) + 0.14285714285714288x(1,1) 
[(1, 2), (0, 2), (2, 1), (2, 0), (2, 2), (1, 0), (1, 1)]
cliques:  1 mip: 70
C:  23.258823529411764
x(0,0) = 22.26	 x(0,1) = 5.82	 x(0,2) = 15.26	 
x(1,0) = 10.09	 x(1,1) = 4.94	 x(1,2) = 13.44	 
x(2,0) = 18.02	 x(2,1) = 1.18	 x(2,2) = 12.02	 
y(0,1,0) = 0.00	 y(1,0,0) = 1.00	 
y(0,2,0) = 0.00	 y(2,0,0) = 1.00	 
y(1,2,0) = 0.94	 y(2,1,0) = 0.06	 
y(0,1,1) = 0.14	 y(1,0,1) = 0.86	 
y(0,2,1) = 0.17	 y(2,0,1) = 0.83	 
y(1,2,1) = 0.13	 y(2,1,1) = 0.87	 
y(0,1,2) = 0.65	 y(1,0,2) = 0.35	 
y(0,2,2) = 0.51	 y(2,0,2) = 0.49	 
y(1,2,2) = 0.35	 y(2,1,2) = 0.65	 
obj:  0.6547085683588503
solutions:  1
+ 0.06666666666666667x(0,1) + 0.06666666666666667x(2,1) + 0.0380952380952381x(1,1) 
[(1, 2), (0, 1), (2, 1), (1, 1), (2, 2), (0, 2)]
cliques:  1 mip: 94
C:  24.407999999999998
x(0,0) = 23.41	 x(0,1) = 7.73	 x(0,2) = 14.73	 
x(1,0) = 8.65	 x(1,1) = 4.65	 x(1,2) = 11.65	 
x(2,0) = 20.73	 x(2,1) = 4.62	 x(2,2) = 14.73	 
y(0,1,0) = 0.00	 y(1,0,0) = 1.00	 
y(0,2,0) = 0.00	 y(2,0,0) = 1.00	 
y(1,2,0) = 0.95	 y(2,1,0) = 0.05	 
y(0,1,1) = 0.06	 y(1,0,1) = 0.94	 
y(0,2,1) = 0.16	 y(2,0,1) = 0.84	 
y(1,2,1) = 0.34	 y(2,1,1) = 0.66	 
y(0,1,2) = 0.28	 y(1,0,2) = 0.72	 
y(0,2,2) = 0.72	 y(2,0,2) = 0.28	 
y(1,2,2) = 0.72	 y(2,1,2) = 0.28	 
obj:  0.9999999999999994
erro
[(1, 2), (0, 1), (2, 1), (1, 1), (2, 2), (0, 2)]
cliques:  0 mip: 89
C:  25.376975824971947
x(0,0) = 24.38	 x(0,1) = 4.91	 x(0,2) = 11.91	 
x(1,0) = 14.66	 x(1,1) = 10.66	 x(1,2) = 17.66	 
x(2,0) = 18.79	 x(2,1) = 3.99	 x(2,2) = 10.99	 
y(0,1,0) = -0.00	 y(1,0,0) = 1.00	 
y(0,2,0) = 0.00	 y(2,0,0) = 1.00	 
y(1,2,0) = 0.95	 y(2,1,0) = 0.05	 
y(0,1,1) = 0.86	 y(1,0,1) = 0.14	 
y(0,2,1) = 0.30	 y(2,0,1) = 0.70	 
y(1,2,1) = 0.01	 y(2,1,1) = 0.99	 
y(0,1,2) = 0.91	 y(1,0,2) = 0.09	 
y(0,2,2) = 0.21	 y(2,0,2) = 0.79	 
y(1,2,2) = 0.09	 y(2,1,2) = 0.91	 
obj:  0.9999999999999989
erro
[(0, 1), (1, 2), (0, 2), (2, 1), (2, 2), (1, 1)]
cliques:  0 mip: 78
C:  25.999999999999996
x(0,0) = 24.78	 x(0,1) = 8.33	 x(0,2) = 15.33	 
x(1,0) = 11.56	 x(1,1) = 7.56	 x(1,2) = 14.56	 
x(2,0) = 17.57	 x(2,1) = 4.57	 x(2,2) = 11.57	 
y(0,1,0) = 0.00	 y(1,0,0) = 1.00	 
y(0,2,0) = 0.11	 y(2,0,0) = 0.89	 
y(1,2,0) = 0.87	 y(2,1,0) = 0.13	 
y(0,1,1) = 0.47	 y(1,0,1) = 0.53	 
y(0,2,1) = 0.13	 y(2,0,1) = 0.87	 
y(1,2,1) = 0.16	 y(2,1,1) = 0.84	 
y(0,1,2) = 0.44	 y(1,0,2) = 0.56	 
y(0,2,2) = 0.57	 y(2,0,2) = 0.43	 
y(1,2,2) = 0.56	 y(2,1,2) = 0.44	 
obj:  1.0207633278823238
erro
[(0, 1), (1, 2), (2, 1), (1, 1), (2, 2), (0, 2)]
cliques:  0 mip: 84
C:  26.0
x(0,0) = 24.29	 x(0,1) = 7.66	 x(0,2) = 14.66	 
x(1,0) = 9.48	 x(1,1) = 5.48	 x(1,2) = 12.48	 
x(2,0) = 20.66	 x(2,1) = 7.66	 x(2,2) = 14.66	 
y(0,1,0) = 0.00	 y(1,0,0) = 1.00	 
y(0,2,0) = 0.36	 y(2,0,0) = 0.64	 
y(1,2,0) = 0.66	 y(2,1,0) = 0.34	 
y(0,1,1) = 0.40	 y(1,0,1) = 0.60	 
y(0,2,1) = 0.28	 y(2,0,1) = 0.72	 
y(1,2,1) = 0.51	 y(2,1,1) = 0.49	 
y(0,1,2) = 0.19	 y(1,0,2) = 0.81	 
y(0,2,2) = 0.57	 y(2,0,2) = 0.43	 
y(1,2,2) = 0.81	 y(2,1,2) = 0.19	 
obj:  1.2306388785591156
erro
[(0, 1), (0, 0), (2, 1), (2, 0), (1, 1), (2, 2), (1, 0), (0, 2)]
cliques:  0 mip: 80
C:  26.0
x(0,0) = 24.61	 x(0,1) = 4.02	 x(0,2) = 11.02	 
x(1,0) = 12.72	 x(1,1) = 8.72	 x(1,2) = 15.72	 
x(2,0) = 20.53	 x(2,1) = 7.53	 x(2,2) = 14.53	 
y(0,1,0) = 0.00	 y(1,0,0) = 1.00	 
y(0,2,0) = 0.19	 y(2,0,0) = 0.81	 
y(1,2,0) = 0.80	 y(2,1,0) = 0.20	 
y(0,1,1) = 0.61	 y(1,0,1) = 0.39	 
y(0,2,1) = 0.43	 y(2,0,1) = 0.57	 
y(1,2,1) = 0.23	 y(2,1,1) = 0.77	 
y(0,1,2) = 0.63	 y(1,0,2) = 0.37	 
y(0,2,2) = 0.86	 y(2,0,2) = 0.14	 
y(1,2,2) = 0.31	 y(2,1,2) = 0.69	 
obj:  1.0049504252774808
erro
[(0, 1), (1, 2), (2, 1), (1, 1), (2, 2), (0, 2)]
cliques:  0 mip: 80
C:  26.0
x(0,0) = 24.61	 x(0,1) = 4.01	 x(0,2) = 11.01	 
x(1,0) = 12.83	 x(1,1) = 8.83	 x(1,2) = 15.83	 
x(2,0) = 20.69	 x(2,1) = 7.69	 x(2,2) = 14.69	 
y(0,1,0) = 0.00	 y(1,0,0) = 1.00	 
y(0,2,0) = 0.20	 y(2,0,0) = 0.80	 
y(1,2,0) = 0.80	 y(2,1,0) = 0.20	 
y(0,1,1) = 0.91	 y(1,0,1) = 0.09	 
y(0,2,1) = 0.43	 y(2,0,1) = 0.57	 
y(1,2,1) = 0.23	 y(2,1,1) = 0.77	 
y(0,1,2) = 0.63	 y(1,0,2) = 0.37	 
y(0,2,2) = 0.50	 y(2,0,2) = 0.50	 
y(1,2,2) = 0.34	 y(2,1,2) = 0.66	 
obj:  1.010991607355642
erro
[(0, 1), (1, 2), (2, 1), (1, 1), (2, 2), (0, 2)]
cliques:  0 mip: 83
C:  25.999999999999996
x(0,0) = 24.60	 x(0,1) = 7.57	 x(0,2) = 14.57	 
x(1,0) = 10.65	 x(1,1) = 6.65	 x(1,2) = 13.65	 
x(2,0) = 18.58	 x(2,1) = 3.64	 x(2,2) = 12.58	 
y(0,1,0) = 0.00	 y(1,0,0) = 1.00	 
y(0,2,0) = 0.20	 y(2,0,0) = 0.80	 
y(1,2,0) = 0.79	 y(2,1,0) = 0.21	 
y(0,1,1) = 0.68	 y(1,0,1) = 0.32	 
y(0,2,1) = 0.20	 y(2,0,1) = 0.80	 
y(1,2,1) = 0.16	 y(2,1,1) = 0.84	 
y(0,1,2) = 0.41	 y(1,0,2) = 0.59	 
y(0,2,2) = 0.37	 y(2,0,2) = 0.63	 
y(1,2,2) = 0.50	 y(2,1,2) = 0.50	 
obj:  0.9999999999999998
erro
[(1, 2), (0, 1), (0, 2), (2, 0), (2, 2), (1, 0), (1, 1)]
cliques:  0 mip: 75
C:  26.0
x(0,0) = 24.11	 x(0,1) = 9.54	 x(0,2) = 16.54	 
x(1,0) = 9.14	 x(1,1) = 1.09	 x(1,2) = 12.14	 
x(2,0) = 24.00	 x(2,1) = 4.84	 x(2,2) = 13.16	 
y(0,1,0) = 0.00	 y(1,0,0) = 1.00	 
y(0,2,0) = 0.45	 y(2,0,0) = 0.55	 
y(1,2,0) = 0.58	 y(2,1,0) = 0.42	 
y(0,1,1) = 0.38	 y(1,0,1) = 0.62	 
y(0,2,1) = 0.19	 y(2,0,1) = 0.81	 
y(1,2,1) = 0.68	 y(2,1,1) = 0.32	 
y(0,1,2) = 0.18	 y(1,0,2) = 0.82	 
y(0,2,2) = 0.13	 y(2,0,2) = 0.87	 
y(1,2,2) = 0.77	 y(2,1,2) = 0.23	 
obj:  1.0000000000000004
erro
[(0, 1), (1, 2), (0, 0), (2, 1), (2, 0), (2, 2), (1, 0), (1, 1)]
cliques:  0 mip: 85
C:  26.000000000000004
x(0,0) = 22.19	 x(0,1) = 6.78	 x(0,2) = 15.19	 
x(1,0) = 10.55	 x(1,1) = 6.55	 x(1,2) = 13.55	 
x(2,0) = 21.63	 x(2,1) = 5.15	 x(2,2) = 12.57	 
y(0,1,0) = 0.00	 y(1,0,0) = 1.00	 
y(0,2,0) = 0.35	 y(2,0,0) = 0.65	 
y(1,2,0) = 0.66	 y(2,1,0) = 0.34	 
y(0,1,1) = 0.70	 y(1,0,1) = 0.30	 
y(0,2,1) = 0.45	 y(2,0,1) = 0.55	 
y(1,2,1) = 0.43	 y(2,1,1) = 0.57	 
y(0,1,2) = 0.33	 y(1,0,2) = 0.67	 
y(0,2,2) = 0.23	 y(2,0,2) = 0.77	 
y(1,2,2) = 0.21	 y(2,1,2) = 0.79	 
obj:  1.044951936683081
erro
[(0, 1), (1, 2), (0, 0), (0, 2), (2, 1), (2, 0), (1, 0), (1, 1)]
cliques:  0 mip: 85
C:  26.000000000000004
x(0,0) = 21.99	 x(0,1) = 7.98	 x(0,2) = 14.99	 
x(1,0) = 8.92	 x(1,1) = 4.92	 x(1,2) = 13.57	 
x(2,0) = 19.99	 x(2,1) = 4.21	 x(2,2) = 13.99	 
y(0,1,0) = 0.00	 y(1,0,0) = 1.00	 
y(0,2,0) = 0.00	 y(2,0,0) = 1.00	 
y(1,2,0) = 0.68	 y(2,1,0) = 0.32	 
y(0,1,1) = 0.60	 y(1,0,1) = 0.40	 
y(0,2,1) = 0.20	 y(2,0,1) = 0.80	 
y(1,2,1) = 0.45	 y(2,1,1) = 0.55	 
y(0,1,2) = 0.32	 y(1,0,2) = 0.68	 
y(0,2,2) = 0.28	 y(2,0,2) = 0.72	 
y(1,2,2) = 0.68	 y(2,1,2) = 0.32	 
obj:  1.0
erro
[(0, 1), (1, 2), (0, 2), (2, 1), (2, 0), (2, 2), (1, 0), (1, 1)]
cliques:  0 mip: 72
C:  26.000000000000004
x(0,0) = 24.93	 x(0,1) = 6.26	 x(0,2) = 13.26	 
x(1,0) = 10.42	 x(1,1) = 6.42	 x(1,2) = 13.42	 
x(2,0) = 21.22	 x(2,1) = 5.08	 x(2,2) = 15.22	 
y(0,1,0) = 0.00	 y(1,0,0) = 1.00	 
y(0,2,0) = 0.04	 y(2,0,0) = 0.96	 
y(1,2,0) = 0.76	 y(2,1,0) = 0.24	 
y(0,1,1) = 0.64	 y(1,0,1) = 0.36	 
y(0,2,1) = 0.37	 y(2,0,1) = 0.63	 
y(1,2,1) = 0.52	 y(2,1,1) = 0.48	 
y(0,1,2) = 0.32	 y(1,0,2) = 0.68	 
y(0,2,2) = 0.75	 y(2,0,2) = 0.25	 
y(1,2,2) = 0.70	 y(2,1,2) = 0.30	 
obj:  0.9999999999999997
erro
[(0, 1), (1, 2), (2, 1), (1, 1), (2, 2), (0, 2)]
cliques:  0 mip: 0
iterações: 14 cortes cliques encontrados: 4 mip: 1035 objective:  26.000000000000004
Coin0506I Presolve 65 (-61) rows, 39 (-25) columns and 202 (-86) elements
Clp1000I sum of infeasibilities 3.24924e-06 - average 4.99884e-08, 0 fixed columns
Coin0506I Presolve 65 (0) rows, 39 (0) columns and 202 (0) elements
Clp0029I End of values pass after 39 iterations
Clp0000I Optimal - objective value 15
Clp0000I Optimal - objective value 15
Coin0511I After Postsolve, objective 15, infeasibilities - dual 0 (0), primal 0 (0)
Clp0000I Optimal - objective value 15
Clp0000I Optimal - objective value 15
Clp0000I Optimal - objective value 15
Coin0511I After Postsolve, objective 15, infeasibilities - dual 0 (0), primal 0 (0)
Clp0032I Optimal objective 15 - 0 iterations time 0.002, Presolve 0.00, Idiot 0.00
Coin3009W Conflict graph built in 0.000 seconds, density: 0.147%
